(set-info :smt-lib-version 2.6)
(set-logic UFNIRA)
(set-info :source |
Generated by: Mirek Olšák, Mikoláš Janota, Chad E. Brown
Generated on: 2024-04-14
Application: Mathematics challenges involving function synthesis
Publications: https://arxiv.org/abs/2404.12048
From a collection by: Vít Musil
Source url: https://prase.cz/library/FunkcionalniRovniceVM/FunkcionalniRovniceVM.pdf
Problem number: Úloha 43
Original source: IMOSC-2003-A5
|)
(set-info :license "https://creativecommons.org/licenses/by-nc/4.0/")
(set-info :category "crafted")
(set-info :status unsat)

; Special functions
(declare-fun sqrt (Real) Real)
(assert (forall ((x Real)) (=> (>= x 0.0) (>= (sqrt x) 0.0))))
(assert (forall ((x Real)) (=> (>= x 0.0) (= (* (sqrt x) (sqrt x)) x))))
(declare-fun power (Real Real) Real)
(declare-fun exp (Real) Real)
(assert (forall ((x Real)) (> (exp x) 0.0)))
(declare-fun log (Real) Real)
(assert (= (exp 0.0) 1.0))
(assert (= (log 1.0) 0.0))
(assert (forall ((a Real) (b Real)) (= (exp (+ a b)) (* (exp a) (exp b)))))
(assert (forall ((x Real) (y Real)) (=> (and (> x 0.0) (> y 0.0)) (= (+ (log x) (log y)) (log (* x y))))))
(assert (forall ((a Real) (x Real)) (=> (> x 0.0) (= (power x a) (exp (* (log x) a))))))
(assert (forall ((x Real)) (=> (> x 0.0) (= (power 0.0 x) 0.0))))
(assert (forall ((a Real)) (= (log (exp a)) a)))
(assert (forall ((x Real)) (=> (> x 0.0) (= (exp (log x)) x))))

; Header
(declare-fun f (Real) Real)
(assert (forall ((x Real)) (=> (> x 0.0) (> (f x) 0.0))))

; Equations
(assert (forall ((x Real) (y Real) (z Real)) (=> (and (> x 0.0) (> y 0.0) (> z 0.0)) (= (+ (+ (+ (f (* (* x y) z)) (f x)) (f y)) (f z)) (* (* (f (sqrt (* x y))) (f (sqrt (* y z)))) (f (sqrt (* x z))))))))
(assert (forall ((x Real) (y Real)) (=> (and (> x 0.0) (> y 0.0)) (=> (and (<= 1.0 x) (< x y)) (< (f x) (f y))))))

; Find all possible f

; Solutions

(assert (not (exists ((c Real)) (and (> c 0.0) (forall ((x Real)) (=> (> x 0.0) (= (f x) (+ (power x c) (power x (- c))))))))))

(check-sat)
(exit)
